p edge 678 1356
e 1 387
e 1 388
e 1 439
e 1 440
e 1 479
e 1 480
e 2 481
e 2 482
e 2 389
e 2 390
e 2 441
e 2 442
e 3 371
e 3 372
e 3 543
e 3 544
e 4 545
e 4 546
e 4 373
e 4 374
e 5 515
e 5 516
e 5 299
e 5 300
e 5 623
e 5 624
e 5 659
e 5 660
e 5 588
e 5 587
e 5 415
e 5 416
e 6 417
e 6 418
e 6 517
e 6 518
e 6 589
e 6 301
e 6 302
e 6 590
e 6 625
e 6 626
e 6 661
e 6 662
e 7 636
e 7 263
e 7 264
e 7 431
e 7 432
e 7 411
e 7 412
e 7 635
e 8 637
e 8 265
e 8 266
e 8 638
e 8 433
e 8 434
e 8 413
e 8 414
e 9 659
e 9 661
e 10 660
e 10 662
e 11 417
e 11 583
e 11 584
e 11 655
e 11 656
e 11 415
e 12 418
e 12 585
e 12 586
e 12 657
e 12 658
e 12 416
e 13 455
e 13 456
e 13 320
e 13 319
e 13 283
e 13 284
e 13 383
e 13 384
e 14 321
e 14 322
e 14 386
e 14 457
e 14 458
e 14 385
e 14 285
e 14 286
e 15 355
e 15 356
e 15 599
e 15 600
e 15 283
e 15 285
e 16 357
e 16 358
e 16 601
e 16 602
e 16 284
e 16 286
e 17 563
e 17 564
e 18 565
e 18 566
e 19 472
e 19 471
e 19 367
e 19 368
e 20 369
e 20 370
e 20 473
e 20 474
e 21 668
e 21 571
e 21 572
e 21 667
e 21 639
e 21 640
e 22 641
e 22 642
e 22 573
e 22 670
e 22 669
e 22 574
e 23 551
e 23 552
e 24 553
e 24 554
e 25 595
e 25 596
e 25 527
e 25 528
e 26 529
e 26 530
e 26 597
e 26 598
e 27 496
e 27 495
e 27 447
e 27 448
e 28 449
e 28 450
e 28 497
e 28 498
e 29 604
e 29 235
e 29 236
e 29 603
e 30 605
e 30 237
e 30 238
e 30 606
e 31 355
e 31 357
e 31 343
e 31 344
e 31 379
e 31 380
e 32 356
e 32 358
e 32 345
e 32 346
e 32 381
e 32 382
e 33 483
e 33 484
e 33 471
e 33 463
e 33 464
e 33 595
e 33 597
e 33 247
e 33 248
e 33 473
e 33 351
e 33 352
e 34 353
e 34 354
e 34 474
e 34 485
e 34 486
e 34 465
e 34 466
e 34 596
e 34 598
e 34 472
e 34 249
e 34 250
e 35 579
e 35 580
e 35 391
e 35 392
e 35 271
e 35 272
e 36 581
e 36 582
e 36 393
e 36 394
e 36 273
e 36 274
e 37 291
e 37 292
e 37 331
e 37 332
e 37 275
e 37 276
e 37 287
e 37 288
e 38 289
e 38 290
e 38 293
e 38 294
e 38 333
e 38 334
e 38 277
e 38 278
e 39 643
e 39 644
e 39 407
e 39 408
e 40 409
e 40 410
e 40 645
e 40 646
e 41 419
e 41 420
e 41 511
e 41 512
e 42 513
e 42 514
e 42 421
e 42 422
e 43 532
e 43 475
e 43 476
e 43 531
e 44 533
e 44 477
e 44 478
e 44 534
e 45 481
e 45 559
e 45 560
e 45 243
e 45 244
e 45 479
e 46 482
e 46 561
e 46 562
e 46 245
e 46 246
e 46 480
e 47 467
e 47 468
e 47 591
e 47 592
e 48 593
e 48 594
e 48 469
e 48 470
e 49 547
e 49 548
e 49 563
e 49 303
e 49 304
e 49 307
e 49 308
e 49 565
e 49 535
e 49 536
e 50 549
e 50 550
e 50 305
e 50 306
e 50 564
e 50 309
e 50 310
e 50 537
e 50 538
e 50 566
e 51 381
e 51 275
e 51 277
e 51 379
e 52 380
e 52 276
e 52 278
e 52 382
e 53 423
e 53 424
e 53 375
e 53 376
e 53 347
e 53 348
e 53 637
e 53 635
e 54 425
e 54 426
e 54 638
e 54 377
e 54 378
e 54 636
e 54 349
e 54 350
e 55 635
e 55 638
e 55 627
e 55 628
e 55 347
e 55 444
e 55 349
e 55 443
e 55 575
e 55 576
e 56 577
e 56 578
e 56 636
e 56 637
e 56 446
e 56 629
e 56 630
e 56 348
e 56 445
e 56 350
e 57 305
e 57 355
e 57 358
e 57 303
e 58 306
e 58 356
e 58 357
e 58 304
e 59 411
e 59 413
e 60 412
e 60 414
e 61 449
e 61 547
e 61 549
e 61 423
e 61 425
e 61 599
e 61 601
e 61 447
e 62 450
e 62 548
e 62 550
e 62 424
e 62 426
e 62 600
e 62 602
e 62 448
e 63 267
e 63 268
e 63 559
e 63 561
e 63 539
e 63 540
e 64 269
e 64 270
e 64 560
e 64 562
e 64 541
e 64 542
e 65 353
e 65 545
e 65 487
e 65 488
e 65 339
e 65 340
e 65 543
e 65 351
e 66 354
e 66 546
e 66 489
e 66 490
e 66 341
e 66 342
e 66 544
e 66 352
e 67 482
e 67 295
e 67 296
e 67 527
e 67 529
e 67 499
e 67 500
e 67 535
e 67 537
e 67 479
e 68 481
e 68 297
e 68 298
e 68 528
e 68 530
e 68 501
e 68 502
e 68 536
e 68 538
e 68 480
e 69 538
e 69 459
e 69 460
e 69 535
e 70 537
e 70 461
e 70 462
e 70 536
e 71 291
e 71 293
e 71 555
e 71 556
e 71 643
e 71 307
e 71 309
e 71 279
e 71 280
e 71 645
e 72 292
e 72 294
e 72 557
e 72 558
e 72 308
e 72 644
e 72 310
e 72 281
e 72 282
e 72 646
e 73 571
e 73 573
e 74 572
e 74 574
e 75 643
e 75 646
e 75 627
e 75 239
e 75 240
e 75 657
e 75 467
e 75 469
e 75 655
e 75 629
e 75 251
e 75 252
e 76 628
e 76 644
e 76 645
e 76 658
e 76 656
e 76 241
e 76 242
e 76 468
e 76 470
e 76 253
e 76 254
e 76 630
e 77 585
e 77 363
e 77 364
e 77 583
e 78 586
e 78 365
e 78 366
e 78 584
e 79 577
e 79 615
e 79 616
e 79 271
e 79 273
e 79 371
e 79 373
e 79 575
e 80 578
e 80 617
e 80 618
e 80 272
e 80 274
e 80 372
e 80 374
e 80 576
e 81 323
e 81 324
e 81 491
e 81 492
e 81 335
e 81 336
e 81 251
e 81 508
e 81 253
e 81 507
e 82 325
e 82 326
e 82 493
e 82 494
e 82 510
e 82 337
e 82 338
e 82 252
e 82 509
e 82 254
e 83 578
e 83 391
e 83 393
e 83 567
e 83 568
e 83 575
e 84 577
e 84 392
e 84 394
e 84 569
e 84 570
e 84 576
e 85 354
e 85 335
e 85 337
e 85 659
e 85 662
e 85 407
e 85 671
e 85 409
e 85 351
e 85 672
e 86 353
e 86 673
e 86 674
e 86 336
e 86 338
e 86 660
e 86 661
e 86 408
e 86 410
e 86 352
e 87 419
e 87 421
e 87 427
e 87 428
e 87 279
e 87 281
e 87 443
e 87 445
e 88 420
e 88 422
e 88 429
e 88 430
e 88 280
e 88 282
e 88 444
e 88 446
e 89 451
e 89 452
e 90 453
e 90 454
e 91 391
e 91 394
e 91 587
e 91 589
e 91 607
e 91 608
e 92 609
e 92 610
e 92 392
e 92 393
e 92 588
e 92 590
e 93 297
e 93 647
e 93 295
e 93 648
e 94 649
e 94 298
e 94 650
e 94 296
e 95 227
e 95 228
e 95 623
e 95 625
e 95 443
e 95 446
e 96 229
e 96 230
e 96 624
e 96 626
e 96 444
e 96 445
e 97 323
e 97 325
e 97 311
e 97 312
e 97 631
e 97 632
e 98 324
e 98 326
e 98 633
e 98 634
e 98 313
e 98 314
e 99 249
e 99 399
e 99 247
e 99 400
e 100 401
e 100 250
e 100 402
e 100 248
e 101 289
e 101 513
e 101 227
e 101 229
e 101 615
e 101 359
e 101 360
e 101 617
e 101 235
e 101 237
e 101 579
e 101 511
e 101 581
e 101 287
e 102 290
e 102 228
e 102 230
e 102 514
e 102 361
e 102 362
e 102 236
e 102 238
e 102 582
e 102 580
e 102 618
e 102 616
e 102 512
e 102 288
e 103 427
e 103 429
e 103 403
e 103 404
e 103 407
e 103 410
e 104 428
e 104 430
e 104 405
e 104 406
e 104 408
e 104 409
e 105 231
e 105 232
e 105 591
e 105 593
e 105 403
e 105 405
e 106 233
e 106 234
e 106 592
e 106 594
e 106 404
e 106 406
e 107 321
e 107 235
e 107 238
e 107 567
e 107 569
e 107 319
e 108 322
e 108 236
e 108 237
e 108 568
e 108 570
e 108 320
e 109 331
e 109 333
e 110 332
e 110 334
e 111 611
e 111 612
e 111 327
e 111 328
e 111 557
e 111 491
e 111 493
e 111 371
e 111 374
e 111 539
e 111 541
e 111 555
e 112 556
e 112 613
e 112 614
e 112 329
e 112 330
e 112 492
e 112 494
e 112 558
e 112 372
e 112 373
e 112 540
e 112 542
e 113 267
e 113 269
e 114 268
e 114 270
e 115 433
e 115 431
e 115 401
e 115 435
e 115 436
e 115 399
e 115 663
e 115 664
e 116 434
e 116 432
e 116 402
e 116 437
e 116 438
e 116 665
e 116 666
e 116 400
e 117 475
e 117 620
e 117 477
e 117 619
e 118 476
e 118 621
e 118 478
e 118 622
e 119 465
e 119 463
e 120 466
e 120 464
e 121 259
e 121 260
e 121 519
e 121 263
e 121 520
e 121 265
e 121 427
e 121 551
e 121 430
e 121 590
e 121 553
e 121 531
e 121 533
e 121 587
e 122 589
e 122 588
e 122 261
e 122 262
e 122 264
e 122 521
e 122 266
e 122 428
e 122 429
e 122 552
e 122 532
e 122 534
e 122 522
e 122 554
e 123 605
e 123 539
e 123 603
e 123 542
e 124 604
e 124 540
e 124 541
e 124 606
e 125 547
e 125 550
e 125 331
e 125 334
e 125 411
e 125 414
e 126 548
e 126 549
e 126 332
e 126 333
e 126 412
e 126 413
e 127 579
e 127 582
e 127 363
e 127 365
e 127 655
e 127 658
e 127 435
e 127 437
e 128 580
e 128 581
e 128 364
e 128 366
e 128 656
e 128 657
e 128 436
e 128 438
e 129 243
e 129 524
e 129 245
e 129 523
e 130 244
e 130 525
e 130 246
e 130 526
e 131 633
e 131 426
e 131 631
e 131 423
e 132 425
e 132 634
e 132 632
e 132 424
e 133 227
e 133 230
e 133 615
e 133 618
e 133 395
e 133 396
e 133 315
e 133 316
e 134 228
e 134 229
e 134 616
e 134 617
e 134 397
e 134 398
e 134 317
e 134 318
e 135 435
e 135 438
e 136 436
e 136 437
e 137 675
e 137 676
e 137 399
e 137 402
e 137 503
e 137 504
e 138 677
e 138 678
e 138 400
e 138 401
e 138 505
e 138 506
e 139 675
e 139 677
e 139 551
e 139 554
e 139 367
e 139 369
e 139 338
e 139 627
e 139 335
e 139 379
e 139 382
e 139 630
e 140 676
e 140 678
e 140 552
e 140 553
e 140 368
e 140 337
e 140 370
e 140 336
e 140 628
e 140 629
e 140 380
e 140 381
e 141 489
e 141 483
e 141 485
e 141 487
e 142 490
e 142 484
e 142 486
e 142 488
e 143 361
e 143 359
e 144 362
e 144 360
e 145 499
e 145 501
e 145 507
e 145 509
e 145 255
e 145 256
e 146 257
e 146 258
e 146 500
e 146 502
e 146 508
e 146 510
e 147 345
e 147 611
e 147 613
e 147 343
e 148 346
e 148 612
e 148 614
e 148 344
e 149 459
e 149 461
e 149 603
e 149 606
e 150 604
e 150 460
e 150 605
e 150 462
e 151 619
e 151 621
e 152 620
e 152 622
e 153 487
e 153 490
e 153 254
e 153 251
e 153 317
e 153 315
e 154 252
e 154 488
e 154 489
e 154 316
e 154 253
e 154 318
e 155 257
e 155 530
e 155 527
e 155 255
e 156 529
e 156 258
e 156 528
e 156 256
e 157 313
e 157 395
e 157 397
e 157 311
e 158 314
e 158 396
e 158 398
e 158 312
e 159 266
e 159 263
e 160 265
e 160 264
e 161 647
e 161 649
e 161 459
e 161 462
e 161 563
e 161 566
e 161 667
e 161 669
e 162 648
e 162 650
e 162 460
e 162 461
e 162 564
e 162 565
e 162 668
e 162 670
e 163 299
e 163 301
e 163 398
e 163 663
e 163 665
e 163 395
e 164 396
e 164 300
e 164 397
e 164 302
e 164 664
e 164 666
e 165 359
e 165 466
e 165 362
e 165 651
e 165 652
e 165 431
e 165 434
e 165 595
e 165 463
e 165 439
e 165 441
e 165 598
e 166 465
e 166 360
e 166 361
e 166 653
e 166 654
e 166 432
e 166 433
e 166 596
e 166 597
e 166 440
e 166 442
e 166 464
e 167 467
e 167 307
e 167 310
e 167 470
e 168 469
e 168 308
e 168 309
e 168 468
e 169 298
e 169 267
e 169 270
e 169 295
e 170 297
e 170 268
e 170 269
e 170 296
e 171 505
e 171 283
e 171 286
e 171 503
e 172 506
e 172 284
e 172 285
e 172 504
e 173 241
e 173 346
e 173 343
e 173 239
e 174 345
e 174 242
e 174 344
e 174 240
e 175 546
e 175 367
e 175 370
e 175 507
e 175 510
e 175 543
e 176 545
e 176 368
e 176 369
e 176 508
e 176 509
e 176 544
e 177 385
e 177 322
e 177 319
e 177 571
e 177 574
e 177 383
e 178 321
e 178 386
e 178 320
e 178 572
e 178 573
e 178 384
e 179 626
e 179 623
e 180 625
e 180 624
e 181 250
e 181 247
e 182 249
e 182 248
e 183 647
e 183 594
e 183 650
e 183 559
e 183 562
e 183 339
e 183 341
e 183 591
e 183 567
e 183 570
e 184 593
e 184 648
e 184 649
e 184 560
e 184 561
e 184 340
e 184 342
e 184 568
e 184 569
e 184 592
e 185 291
e 185 517
e 185 294
e 185 599
e 185 515
e 185 375
e 185 675
e 185 377
e 185 602
e 185 678
e 186 677
e 186 516
e 186 293
e 186 518
e 186 600
e 186 292
e 186 676
e 186 376
e 186 601
e 186 378
e 187 419
e 187 422
e 188 420
e 188 421
e 189 497
e 189 495
e 190 498
e 190 496
e 191 515
e 191 518
e 191 455
e 191 457
e 191 275
e 191 278
e 192 516
e 192 517
e 192 456
e 192 458
e 192 276
e 192 277
e 193 641
e 193 451
e 193 453
e 193 231
e 193 233
e 193 639
e 194 642
e 194 452
e 194 454
e 194 232
e 194 234
e 194 640
e 195 258
e 195 231
e 195 234
e 195 555
e 195 558
e 195 255
e 196 257
e 196 232
e 196 233
e 196 556
e 196 557
e 196 256
e 197 673
e 197 483
e 197 486
e 197 327
e 197 329
e 197 491
e 197 494
e 197 303
e 197 306
e 197 531
e 197 534
e 197 671
e 198 674
e 198 484
e 198 485
e 198 328
e 198 330
e 198 492
e 198 493
e 198 304
e 198 305
e 198 532
e 198 533
e 198 672
e 199 651
e 199 653
e 200 652
e 200 654
e 201 259
e 201 261
e 201 327
e 201 330
e 201 389
e 201 387
e 201 403
e 201 406
e 201 279
e 201 282
e 202 260
e 202 262
e 202 328
e 202 329
e 202 404
e 202 388
e 202 405
e 202 280
e 202 281
e 202 390
e 203 609
e 203 387
e 203 390
e 203 271
e 203 274
e 203 607
e 204 610
e 204 388
e 204 389
e 204 272
e 204 273
e 204 608
e 205 642
e 205 495
e 205 498
e 205 375
e 205 378
e 205 639
e 206 641
e 206 496
e 206 497
e 206 376
e 206 377
e 206 640
e 207 386
e 207 383
e 208 385
e 208 384
e 209 299
e 209 302
e 209 631
e 209 634
e 209 475
e 209 478
e 210 300
e 210 301
e 210 632
e 210 633
e 210 476
e 210 477
e 211 290
e 211 363
e 211 366
e 211 499
e 211 339
e 211 342
e 211 287
e 211 502
e 212 289
e 212 364
e 212 365
e 212 500
e 212 340
e 212 341
e 212 501
e 212 288
e 213 418
e 213 323
e 213 326
e 213 519
e 213 439
e 213 521
e 213 611
e 213 311
e 213 442
e 213 314
e 213 315
e 213 318
e 213 415
e 213 614
e 214 417
e 214 324
e 214 325
e 214 520
e 214 522
e 214 440
e 214 441
e 214 612
e 214 312
e 214 313
e 214 613
e 214 316
e 214 317
e 214 416
e 215 450
e 215 519
e 215 514
e 215 522
e 215 447
e 215 511
e 216 449
e 216 513
e 216 520
e 216 521
e 216 448
e 216 512
e 217 347
e 217 350
e 218 348
e 218 349
e 219 458
e 219 523
e 219 525
e 219 455
e 220 457
e 220 524
e 220 526
e 220 456
e 221 259
e 221 619
e 221 262
e 221 622
e 222 620
e 222 621
e 222 260
e 222 261
e 223 451
e 223 454
e 223 583
e 223 586
e 223 651
e 223 654
e 223 239
e 223 242
e 223 243
e 223 246
e 223 667
e 223 670
e 224 452
e 224 453
e 224 584
e 224 585
e 224 652
e 224 653
e 224 240
e 224 241
e 224 244
e 224 245
e 224 668
e 224 669
e 225 610
e 225 471
e 225 674
e 225 666
e 225 523
e 225 526
e 225 663
e 225 671
e 225 503
e 225 506
e 225 474
e 225 607
e 226 609
e 226 673
e 226 472
e 226 665
e 226 524
e 226 525
e 226 505
e 226 504
e 226 473
e 226 672
e 226 664
e 226 608